
Gurobi 12.0.2 (linux64, C++) logging started Thu Jun 19 08:00:19 2025

Set parameter LogFile to value "log/instances/scenario3/fully_correlated_sc3/300/kpfs_4.txt.log"

Gurobi 12.0.2 (linux64, C++) logging started Thu Jun 19 08:01:42 2025

Set parameter LogFile to value "log/instances/scenario3/fully_correlated_sc3/300/kpfs_4.txt.log"

Gurobi 12.0.2 (linux64, C++) logging started Thu Jun 19 08:02:53 2025

Set parameter LogFile to value "log/instances/scenario3/fully_correlated_sc3/300/kpfs_4.txt.log"

Gurobi 12.0.2 (linux64, C++) logging started Thu Jun 19 08:03:57 2025

Set parameter LogFile to value "log/instances/scenario3/fully_correlated_sc3/300/kpfs_4.txt.log"

Gurobi 12.0.2 (linux64, C++) logging started Thu Jun 19 14:06:47 2025

Set parameter WLSAccessID
Set parameter WLSSecret
Set parameter LicenseID to value 2679381
Set parameter LogFile to value "log/instances/scenario3/fully_correlated_sc3/300/kpfs_4.txt.log"
Academic license 2679381 - for non-commercial use only - registered to be___@poli.ufrj.br
Set parameter TimeLimit to value 1800
Set parameter Threads to value 1
Gurobi Optimizer version 12.0.2 build v12.0.2rc0 (linux64 - "Ubuntu 24.04.1 LTS")

CPU model: 13th Gen Intel(R) Core(TM) i7-1355U, instruction set [SSE2|AVX|AVX2]
Thread count: 6 physical cores, 12 logical processors, using up to 1 threads

Non-default parameters:
TimeLimit  1800
Threads  1

Academic license 2679381 - for non-commercial use only - registered to be___@poli.ufrj.br
Optimize a model with 1502 rows, 1800 columns and 9180 nonzeros
Model fingerprint: 0x27fdc530
Variable types: 0 continuous, 1800 integer (300 binary)
Coefficient statistics:
  Matrix range     [1e+00, 3e+01]
  Objective range  [7e+00, 4e+01]
  Bounds range     [1e+00, 5e+00]
  RHS range        [1e+00, 5e+02]
Found heuristic solution: objective 775.0000000
Presolve removed 6 rows and 491 columns
Presolve time: 0.04s
Presolved: 1496 rows, 1309 columns, 8185 nonzeros
Variable types: 0 continuous, 1309 integer (300 binary)

Root relaxation: objective 1.019558e+03, 647 iterations, 0.06 seconds (0.04 work units)

    Nodes    |    Current Node    |     Objective Bounds      |     Work
 Expl Unexpl |  Obj  Depth IntInf | Incumbent    BestBd   Gap | It/Node Time

     0     0 1019.55796    0  157  775.00000 1019.55796  31.6%     -    0s
H    0     0                     785.0000000 1019.55796  29.9%     -    0s
H    0     0                     840.0000000 1019.55796  21.4%     -    0s
H    0     0                     849.0000000 1019.55796  20.1%     -    0s
H    0     0                     860.0000000 1019.55796  18.6%     -    0s
H    0     0                     869.0000000 1019.55796  17.3%     -    0s
H    0     0                     903.0000000 1019.55796  12.9%     -    0s
H    0     0                     905.0000000 1019.55796  12.7%     -    0s
H    0     0                     906.0000000 1019.55796  12.5%     -    0s
H    0     0                     922.0000000 1019.55796  10.6%     -    0s
H    0     0                     925.0000000 1019.55796  10.2%     -    0s
     0     0 1016.52265    0  158  925.00000 1016.52265  9.89%     -    0s
     0     0 1016.03607    0  157  925.00000 1016.03607  9.84%     -    0s
     0     0 1014.66330    0  160  925.00000 1014.66330  9.69%     -    1s
     0     0 1014.63270    0  160  925.00000 1014.63270  9.69%     -    1s
     0     0 1014.07501    0  159  925.00000 1014.07501  9.63%     -    1s
     0     0 1014.07323    0  161  925.00000 1014.07323  9.63%     -    1s
     0     0 1013.55595    0  157  925.00000 1013.55595  9.57%     -    1s
     0     0 1013.37432    0  157  925.00000 1013.37432  9.55%     -    1s
     0     0 1013.35041    0  161  925.00000 1013.35041  9.55%     -    1s
     0     0 1012.70734    0  159  925.00000 1012.70734  9.48%     -    1s
     0     0 1012.68058    0  158  925.00000 1012.68058  9.48%     -    1s
     0     0 1012.67915    0  157  925.00000 1012.67915  9.48%     -    1s
     0     0 1012.67913    0  157  925.00000 1012.67913  9.48%     -    1s
     0     0 1012.13685    0  154  925.00000 1012.13685  9.42%     -    1s
     0     0 1012.04604    0  153  925.00000 1012.04604  9.41%     -    1s
     0     0 1012.00626    0  158  925.00000 1012.00626  9.41%     -    1s
     0     0 1011.98719    0  158  925.00000 1011.98719  9.40%     -    1s
     0     0 1011.89511    0  158  925.00000 1011.89511  9.39%     -    1s
     0     0 1011.87220    0  157  925.00000 1011.87220  9.39%     -    1s
     0     0 1011.87220    0  157  925.00000 1011.87220  9.39%     -    1s
     0     0 1011.60207    0  157  925.00000 1011.60207  9.36%     -    1s
     0     0 1011.58238    0  158  925.00000 1011.58238  9.36%     -    1s
     0     0 1011.54900    0  157  925.00000 1011.54900  9.36%     -    1s
     0     0 1011.54088    0  159  925.00000 1011.54088  9.36%     -    1s
     0     0 1011.45852    0  156  925.00000 1011.45852  9.35%     -    1s
H    0     0                     930.0000000 1011.43251  8.76%     -    1s
H    0     0                     934.0000000 1011.43251  8.29%     -    1s
     0     0 1011.43251    0  156  934.00000 1011.43251  8.29%     -    1s
     0     0 1011.34022    0  163  934.00000 1011.34022  8.28%     -    1s
     0     0 1011.32626    0  162  934.00000 1011.32626  8.28%     -    1s
     0     0 1011.28681    0  161  934.00000 1011.28681  8.27%     -    1s
     0     0 1010.97453    0  160  934.00000 1010.97453  8.24%     -    2s
     0     0 1010.94085    0  160  934.00000 1010.94085  8.24%     -    2s
     0     0 1010.94085    0  160  934.00000 1010.94085  8.24%     -    2s
     0     0 1010.94085    0  160  934.00000 1010.94085  8.24%     -    2s
H    0     0                     935.0000000 1010.94085  8.12%     -    2s
H    0     0                     942.0000000 1010.94085  7.32%     -    2s
H    0     0                     945.0000000 1010.92257  6.98%     -    2s
     0     2 1010.92257    0  160  945.00000 1010.92257  6.98%     -    2s
H  249   208                     950.0000000 1008.66293  6.18%  52.5    6s
H  249   178                     955.0000000 1008.66293  5.62%  52.5    6s
   250   181  986.42488   15  132  955.00000 1008.66293  5.62%  52.9   10s
H  542   415                     956.0000000 1007.88823  5.43%  52.6   14s
H  567   404                     958.0000000 1007.56765  5.17%  51.6   14s
   568   405  982.28707   17  160  958.00000 1007.56765  5.17%  51.5   15s
   581   414  999.85842    8  159  958.00000 1007.56765  5.17%  50.3   20s
   640   455  977.16111   39  107  958.00000 1007.07454  5.12%  57.0   25s
H  751   478                     961.0000000 1006.47483  4.73%  61.2   27s
H  751   451                     965.0000000 1006.47483  4.30%  61.2   27s
H  873   475                     966.0000000 1004.47122  3.98%  65.2   29s
H  873   433                     970.0000000 1004.47122  3.55%  65.2   29s
H  873   392                     973.0000000 1004.47122  3.23%  65.2   29s
H  873   360                     975.0000000 1004.47122  3.02%  65.2   29s
   873   360     cutoff   42       975.00000 1004.47122  3.02%  65.2   30s
  1211   411  983.41576   24  137  975.00000  998.20638  2.38%  65.1   35s
  1615   470  995.12082   19  136  975.00000  996.26057  2.18%  62.0   40s
  2054   652  982.61209   21  131  975.00000  994.52431  2.00%  59.2   45s
  2561   808  984.22500   22  122  975.00000  992.91054  1.84%  57.4   50s
  3129   969  986.43890   25  131  975.00000  991.58333  1.70%  56.0   55s
  3502  1058  979.24906   26  124  975.00000  990.79871  1.62%  55.2   60s
  3942  1141  978.47557   28  122  975.00000  990.05208  1.54%  54.4   66s
  4515  1256  986.22851   21  116  975.00000  989.10256  1.45%  53.7   70s
  5112  1355     cutoff   38       975.00000  988.23312  1.36%  52.9   75s
  5699  1417  980.11083   25  126  975.00000  987.50168  1.28%  52.3   80s
  6288  1466  981.50841   22  113  975.00000  986.79538  1.21%  51.8   85s
  6789  1523  980.13569   18  115  975.00000  986.30581  1.16%  51.2   91s
  7323  1536  980.05778   19  107  975.00000  985.80000  1.11%  50.7   95s
  7873  1543  980.23707   23   96  975.00000  985.43381  1.07%  50.2  100s
  8765  1532  983.64556   26  113  975.00000  984.60460  0.99%  49.5  105s
  9547  1480     cutoff   38       975.00000  983.89253  0.91%  49.0  110s
 10153  1401  978.64200   30  110  975.00000  983.20267  0.84%  48.8  115s
 10812  1336  979.32367   22  117  975.00000  982.58579  0.78%  48.3  120s
 11328  1229  980.47307   30  111  975.00000  981.98324  0.72%  48.1  125s
 11914  1072  979.69565   36  104  975.00000  981.27881  0.64%  47.7  130s
 12651   850  977.19146   28  120  975.00000  980.49344  0.56%  47.2  135s
 13237   693  978.08797   26  107  975.00000  979.78924  0.49%  46.6  141s
 13927   546     cutoff   25       975.00000  978.97516  0.41%  45.7  145s

Cutting planes:
  Gomory: 1
  Cover: 1
  MIR: 10
  StrongCG: 3
  Flow cover: 9
  Zero half: 25
  RLT: 4
  Relax-and-lift: 3

Explored 15067 nodes (664448 simplex iterations) in 149.57 seconds (48.28 work units)
Thread count was 1 (of 12 available processors)

Solution count 10: 975 973 970 ... 950

Optimal solution found (tolerance 1.00e-04)
Best objective 9.750000000000e+02, best bound 9.750000000000e+02, gap 0.0000%
